
******************************************************************************
This program contains Ipopt, a library for large-scale nonlinear optimization.
 Ipopt is released as open source code under the Eclipse Public License (EPL).
         For more information visit http://projects.coin-or.org/Ipopt

This version of Ipopt was compiled from source code available at
    https://github.com/IDAES/Ipopt as part of the Institute for the Design of
    Advanced Energy Systems Process Systems Engineering Framework (IDAES PSE
    Framework) Copyright (c) 2018-2019. See https://github.com/IDAES/idaes-pse.

This version of Ipopt was compiled using HSL, a collection of Fortran codes
    for large-scale scientific computation.  All technical papers, sales and
    publicity material resulting from use of the HSL codes within IPOPT must
    contain the following acknowledgement:
        HSL, a collection of Fortran codes for large-scale scientific
        computation. See http://www.hsl.rl.ac.uk.
******************************************************************************

This is Ipopt version 3.13.2, running with linear solver ma27.

Number of nonzeros in equality constraint Jacobian...:      808
Number of nonzeros in inequality constraint Jacobian.:        0
Number of nonzeros in Lagrangian Hessian.............:      702

Total number of variables............................:      351
                     variables with only lower bounds:      108
                variables with lower and upper bounds:      189
                     variables with only upper bounds:        0
Total number of equality constraints.................:      350
Total number of inequality constraints...............:        0
        inequality constraints with only lower bounds:        0
   inequality constraints with lower and upper bounds:        0
        inequality constraints with only upper bounds:        0

iter    objective    inf_pr   inf_du lg(mu)  ||d||  lg(rg) alpha_du alpha_pr  ls
   0  0.0000000e+00 4.49e-01 1.11e-16  -1.0 0.00e+00    -  0.00e+00 0.00e+00   0
   1  3.6503120e+00 9.38e-01 3.77e+04  -1.0 2.60e+05    -  5.09e-01 4.50e-01h  1
   2  3.9350101e+00 9.09e-01 3.66e+04  -1.0 1.67e+05    -  7.91e-01 2.77e-02h  1
   3  5.5656194e+00 7.83e-01 3.24e+04  -1.0 2.23e+05    -  7.90e-01 1.36e-01h  1
   4  2.7534452e+01 6.78e-02 4.02e+03  -1.0 1.99e+05    -  8.16e-01 9.90e-01h  1
   5  3.1304464e+01 2.93e-03 5.80e+02  -1.0 2.32e+04    -  9.74e-01 9.90e-01h  1
   6  3.1383558e+01 4.50e-05 9.62e+00  -1.0 4.72e+02    -  9.90e-01 9.90e-01h  1
   7  3.1384790e+01 4.43e-05 2.11e+07  -1.0 1.01e+03    -  9.90e-01 1.55e-02f  7
   8  3.1386837e+01 4.37e-05 4.23e+07  -1.0 1.69e+03    -  9.95e-01 1.55e-02f  7
   9  3.1515952e+01 1.23e-04 6.46e+05  -1.0 1.68e+03    -  1.00e+00 9.90e-01H  1
iter    objective    inf_pr   inf_du lg(mu)  ||d||  lg(rg) alpha_du alpha_pr  ls
  10  3.1516120e+01 1.27e-06 2.23e+07  -1.0 2.07e+00    -  1.00e+00 9.90e-01h  1
  11  3.1516118e+01 1.27e-08 2.23e+09  -1.0 3.03e-02    -  1.00e+00 9.90e-01h  1
  12  3.1516118e+01 1.26e-10 2.23e+11  -1.0 3.03e-04    -  1.00e+00 9.90e-01h  1
In iteration 12, 27 Slacks too small, adjusting variable bounds
  13  3.1516118e+01 2.58e-12 2.23e+13  -1.0 3.02e-06    -  1.00e+00 9.90e-01h  1
  14  3.1516118e+01 1.08e-12 1.10e+15  -1.0 4.07e-07    -  1.00e+00 5.00e-01h  2
  15  3.1516118e+01 1.32e-12 8.28e+14  -1.0 2.32e-07    -  1.00e+00 2.50e-01h  3
  16  3.1516118e+01 1.32e-12 8.28e+14  -1.0 4.02e-07    -  1.00e+00 4.88e-04h 12
  17  3.1516118e+01 1.10e-12 8.26e+14  -1.0 4.21e-07    -  1.00e+00 1.95e-03h 10
  18  3.1516118e+01 2.30e-12 1.25e-01  -1.0 4.49e-07    -  1.00e+00 1.00e+00s 22
  19  3.1383787e+01 1.30e-03 2.78e+00  -9.0 2.24e+03    -  7.57e-01 7.57e-01s 22
iter    objective    inf_pr   inf_du lg(mu)  ||d||  lg(rg) alpha_du alpha_pr  ls
  20  3.1382131e+01 1.24e-07 3.82e-03  -9.0 2.03e+01    -  1.00e+00 1.00e+00s 22
  21  3.1382131e+01 1.43e-12 1.09e-08  -9.0 1.61e-04    -  1.00e+00 1.00e+00s 22

Number of Iterations....: 21

                                   (scaled)                 (unscaled)
Objective...............:   3.1382131402548254e+01    3.1382131402548254e+01
Dual infeasibility......:   1.0884832590818405e-08    1.0884832590818405e-08
Constraint violation....:   1.4301893003221267e-12    1.4301893003221267e-12
Complementarity.........:   9.2147721919929137e-10    9.2147721919929137e-10
Overall NLP error.......:   8.2243140777584706e-11    1.0884832590818405e-08


Number of objective function evaluations             = 97
Number of objective gradient evaluations             = 22
Number of equality constraint evaluations            = 97
Number of inequality constraint evaluations          = 0
Number of equality constraint Jacobian evaluations   = 22
Number of inequality constraint Jacobian evaluations = 0
Number of Lagrangian Hessian evaluations             = 21
Total CPU secs in IPOPT (w/o function evaluations)   =      0.048
Total CPU secs in NLP function evaluations           =      0.782

EXIT: Optimal Solution Found.
